(set-info :source |printed by MathSAT|)
(declare-fun |.x{150}| () Int)
(declare-fun |.y{13}| () Int)
(declare-fun |.y{11}| () Int)
(declare-fun |.y{14}| () Int)
(declare-fun |.y{12}| () Int)
(declare-fun |.y{15}| () Int)
(declare-fun |.x{151}| () (Array Int Int))
(declare-fun |.y{16}| () (Array Int Int))
(declare-fun |.x{155}| () Int)
(declare-fun |.y{17}| () Int)
(declare-fun |.x{156}| () (Array Int Int))
(declare-fun |.y{18}| () (Array Int Int))
(declare-fun |.x{146}| () Int)
(declare-fun |.y{19}| () Int)
(declare-fun |.x{147}| () (Array Int Int))
(declare-fun |.y{20}| () (Array Int Int))
(declare-fun |.x{154}| () Int)
(declare-fun |.y{21}| () Int)
(declare-fun |.x{141}| () Int)
(declare-fun |.y{22}| () Int)
(declare-fun |.loc{3}| () Bool)
(declare-fun |.loc{5}| () Bool)
(declare-fun |.loc{4}| () Bool)
(declare-fun |.loc{6}| () Bool)
(declare-fun |.x{55}| () Int)
(declare-fun |.x{56}| () Int)
(declare-fun |.x{162}| () Int)
(declare-fun |.x{152}| () Int)
(declare-fun |.x{157}| () Int)
(declare-fun |.x{148}| () Int)
(define-fun .def_28 () Bool (! |.loc{3}| :next |.loc{5}|))
(define-fun .def_145 () Bool (not .def_28))
(define-fun .def_30 () Bool (! |.loc{4}| :next |.loc{6}|))
(define-fun .def_58 () Bool (not .def_30))
(define-fun .def_269 () Bool (! (and .def_58 .def_145) :init true))
(define-fun .def_22 () (Array Int Int) (! |.x{147}| :next |.y{20}|))
(define-fun .def_260 () Int (select .def_22 |.x{148}|))
(define-fun .def_261 () Bool (= |.x{162}| .def_260))
(define-fun .def_262 () Bool (not .def_261))
(define-fun .def_24 () Int (! |.x{154}| :next |.y{21}|))
(define-fun .def_26 () Int (! |.x{141}| :next |.y{22}|))
(define-fun .def_254 () Int (* 16777216 .def_26))
(define-fun .def_255 () Real (* (/ 1 16777216) (to_real .def_254)))
(define-fun .def_256 () Int (to_int .def_255))
(define-fun .def_257 () Bool (<= .def_256 .def_24))
(define-fun .def_258 () Bool (not .def_257))
(define-fun .def_8 () Int (! |.x{150}| :next |.y{13}|))
(define-fun .def_168 () Bool (<= .def_8 0))
(define-fun .def_119 () Bool (<= |.x{152}| 0))
(define-fun .def_120 () Bool (not .def_119))
(define-fun .def_250 () Bool (or .def_120 .def_168))
(define-fun .def_123 () Int (* (- 1) |.x{157}|))
(define-fun .def_162 () Int (+ .def_24 .def_123))
(define-fun .def_16 () Int (! |.x{155}| :next |.y{17}|))
(define-fun .def_246 () Int (+ .def_16 .def_162))
(define-fun .def_247 () Bool (= .def_246 0))
(define-fun .def_113 () Int (* (- 1) |.x{152}|))
(define-fun .def_154 () Int (+ .def_24 .def_113))
(define-fun .def_240 () Int (+ .def_8 .def_154))
(define-fun .def_241 () Bool (= .def_240 0))
(define-fun .def_14 () (Array Int Int) (! |.x{151}| :next |.y{16}|))
(define-fun .def_234 () Int (select .def_14 |.x{152}|))
(define-fun .def_235 () Int (* (- 1) .def_234))
(define-fun .def_18 () (Array Int Int) (! |.x{156}| :next |.y{18}|))
(define-fun .def_233 () Int (select .def_18 |.x{157}|))
(define-fun .def_236 () Int (+ .def_233 .def_235))
(define-fun .def_237 () Int (+ |.x{162}| .def_236))
(define-fun .def_238 () Bool (= .def_237 0))
(define-fun .def_104 () Bool (<= |.x{148}| 0))
(define-fun .def_105 () Bool (not .def_104))
(define-fun .def_20 () Int (! |.x{146}| :next |.y{19}|))
(define-fun .def_46 () Bool (<= .def_20 0))
(define-fun .def_230 () Bool (or .def_46 .def_105))
(define-fun .def_96 () Int (* (- 1) |.x{148}|))
(define-fun .def_174 () Int (+ .def_24 .def_96))
(define-fun .def_227 () Int (+ .def_20 .def_174))
(define-fun .def_228 () Bool (= .def_227 0))
(define-fun .def_166 () Bool (<= |.x{157}| 0))
(define-fun .def_167 () Bool (not .def_166))
(define-fun .def_43 () Bool (<= .def_16 0))
(define-fun .def_224 () Bool (or .def_43 .def_167))
(define-fun .def_225 () Bool (and |.loc{5}| .def_224))
(define-fun .def_44 () Bool (not .def_43))
(define-fun .def_226 () Bool (and .def_44 .def_225))
(define-fun .def_229 () Bool (and .def_226 .def_228))
(define-fun .def_231 () Bool (and .def_229 .def_230))
(define-fun .def_101 () Bool (not .def_46))
(define-fun .def_232 () Bool (and .def_101 .def_231))
(define-fun .def_239 () Bool (and .def_232 .def_238))
(define-fun .def_242 () Bool (and .def_239 .def_241))
(define-fun .def_243 () Bool (and .def_30 .def_242))
(define-fun .def_248 () Bool (and .def_243 .def_247))
(define-fun .def_249 () Bool (and .def_145 .def_248))
(define-fun .def_251 () Bool (and .def_249 .def_250))
(define-fun .def_206 () Bool (not .def_168))
(define-fun .def_252 () Bool (and .def_206 .def_251))
(define-fun .def_259 () Bool (and .def_252 .def_258))
(define-fun .def_263 () Bool (and .def_259 .def_262))
(define-fun .def_222 () Bool (= |.y{21}| 0))
(define-fun .def_218 () Bool (= .def_24 |.y{22}|))
(define-fun .def_10 () Int (! |.y{11}| :next |.y{14}|))
(define-fun .def_210 () Bool (= |.y{13}| .def_10))
(define-fun .def_12 () Int (! |.y{12}| :next |.y{15}|))
(define-fun .def_83 () Int (* (- 16777216) .def_24))
(define-fun .def_84 () Int (* (- 1) .def_83))
(define-fun .def_86 () Real (* (/ 1 16777216) (to_real .def_84)))
(define-fun .def_87 () Int (to_int .def_86))
(define-fun .def_88 () Bool (<= .def_87 .def_12))
(define-fun .def_211 () Bool (and .def_88 .def_210))
(define-fun .def_180 () Bool (= .def_14 |.y{16}|))
(define-fun .def_212 () Bool (and .def_180 .def_211))
(define-fun .def_60 () Bool (= .def_16 |.y{17}|))
(define-fun .def_213 () Bool (and .def_60 .def_212))
(define-fun .def_183 () Bool (= .def_18 |.y{18}|))
(define-fun .def_214 () Bool (and .def_183 .def_213))
(define-fun .def_62 () Bool (= .def_20 |.y{19}|))
(define-fun .def_215 () Bool (and .def_62 .def_214))
(define-fun .def_186 () Bool (= .def_22 |.y{20}|))
(define-fun .def_216 () Bool (and .def_186 .def_215))
(define-fun .def_217 () Bool (and .def_28 .def_216))
(define-fun .def_219 () Bool (and .def_217 .def_218))
(define-fun .def_160 () Bool (not |.loc{5}|))
(define-fun .def_220 () Bool (and .def_160 .def_219))
(define-fun .def_221 () Bool (and .def_58 .def_220))
(define-fun .def_223 () Bool (and .def_221 .def_222))
(define-fun .def_264 () Bool (or .def_223 .def_263))
(define-fun .def_204 () Bool (= .def_26 |.y{22}|))
(define-fun .def_198 () Int (* (- 1) |.y{21}|))
(define-fun .def_199 () Int (+ .def_24 .def_198))
(define-fun .def_200 () Bool (= .def_199 (- 1)))
(define-fun .def_192 () Int (select .def_18 |.x{148}|))
(define-fun .def_189 () Int (select .def_14 |.x{157}|))
(define-fun .def_190 () Int (* (- 1) .def_189))
(define-fun .def_194 () Int (+ .def_190 .def_192))
(define-fun .def_188 () Int (select .def_22 |.x{152}|))
(define-fun .def_195 () Int (+ .def_188 .def_194))
(define-fun .def_196 () Bool (= .def_195 0))
(define-fun .def_178 () Bool (or .def_43 .def_105))
(define-fun .def_175 () Int (+ .def_16 .def_174))
(define-fun .def_176 () Bool (= .def_175 0))
(define-fun .def_169 () Bool (or .def_167 .def_168))
(define-fun .def_163 () Int (+ .def_8 .def_162))
(define-fun .def_164 () Bool (= .def_163 0))
(define-fun .def_158 () Bool (or .def_46 .def_120))
(define-fun .def_155 () Int (+ .def_20 .def_154))
(define-fun .def_156 () Bool (= .def_155 0))
(define-fun .def_147 () Int (* (- 16777216) .def_26))
(define-fun .def_148 () Int (* (- 1) .def_147))
(define-fun .def_149 () Real (* (/ 1 16777216) (to_real .def_148)))
(define-fun .def_150 () Int (to_int .def_149))
(define-fun .def_151 () Bool (<= .def_150 .def_24))
(define-fun .def_152 () Bool (not .def_151))
(define-fun .def_153 () Bool (and .def_44 .def_152))
(define-fun .def_157 () Bool (and .def_153 .def_156))
(define-fun .def_159 () Bool (and .def_157 .def_158))
(define-fun .def_161 () Bool (and .def_159 .def_160))
(define-fun .def_165 () Bool (and .def_161 .def_164))
(define-fun .def_170 () Bool (and .def_165 .def_169))
(define-fun .def_177 () Bool (and .def_170 .def_176))
(define-fun .def_179 () Bool (and .def_177 .def_178))
(define-fun .def_181 () Bool (and .def_179 .def_180))
(define-fun .def_182 () Bool (and .def_60 .def_181))
(define-fun .def_184 () Bool (and .def_182 .def_183))
(define-fun .def_185 () Bool (and .def_62 .def_184))
(define-fun .def_187 () Bool (and .def_185 .def_186))
(define-fun .def_197 () Bool (and .def_187 .def_196))
(define-fun .def_201 () Bool (and .def_197 .def_200))
(define-fun .def_91 () Bool (= .def_8 |.y{13}|))
(define-fun .def_202 () Bool (and .def_91 .def_201))
(define-fun .def_203 () Bool (and .def_101 .def_202))
(define-fun .def_205 () Bool (and .def_203 .def_204))
(define-fun .def_207 () Bool (and .def_205 .def_206))
(define-fun .def_208 () Bool (and .def_30 .def_207))
(define-fun .def_209 () Bool (and .def_145 .def_208))
(define-fun .def_265 () Bool (or .def_209 .def_264))
(define-fun .def_266 () Bool (and |.loc{6}| .def_265))
(define-fun .def_141 () Bool (<= |.y{19}| 0))
(define-fun .def_142 () Bool (not .def_141))
(define-fun .def_137 () Bool (<= |.y{17}| 0))
(define-fun .def_138 () Bool (not .def_137))
(define-fun .def_134 () Bool (<= |.y{14}| 0))
(define-fun .def_135 () Bool (not .def_134))
(define-fun .def_131 () Bool (<= |.y{21}| 0))
(define-fun .def_132 () Bool (not .def_131))
(define-fun .def_52 () Bool (not |.loc{6}|))
(define-fun .def_129 () Bool (and |.loc{5}| .def_52))
(define-fun .def_128 () Bool (= |.y{15}| 0))
(define-fun .def_130 () Bool (and .def_128 .def_129))
(define-fun .def_133 () Bool (and .def_130 .def_132))
(define-fun .def_136 () Bool (and .def_133 .def_135))
(define-fun .def_139 () Bool (and .def_136 .def_138))
(define-fun .def_140 () Bool (and .def_58 .def_139))
(define-fun .def_143 () Bool (and .def_140 .def_142))
(define-fun .def_144 () Bool (and .def_91 .def_143))
(define-fun .def_146 () Bool (and .def_144 .def_145))
(define-fun .def_267 () Bool (or .def_146 .def_266))
(define-fun .def_124 () Int (+ |.x{162}| .def_123))
(define-fun .def_125 () Int (+ |.x{56}| .def_124))
(define-fun .def_126 () Bool (= .def_125 0))
(define-fun .def_121 () Bool (or .def_43 .def_120))
(define-fun .def_114 () Int (+ .def_16 .def_113))
(define-fun .def_115 () Int (+ .def_12 .def_114))
(define-fun .def_116 () Bool (= .def_115 0))
(define-fun .def_103 () Bool (<= .def_10 0))
(define-fun .def_108 () Bool (not .def_103))
(define-fun .def_106 () Bool (or .def_103 .def_105))
(define-fun .def_97 () Int (+ .def_12 .def_96))
(define-fun .def_98 () Int (+ .def_10 .def_97))
(define-fun .def_99 () Bool (= .def_98 0))
(define-fun .def_89 () Bool (not .def_88))
(define-fun .def_79 () (Array Int Int) (store .def_14 |.x{148}| |.x{157}|))
(define-fun .def_80 () Bool (= |.y{16}| .def_79))
(define-fun .def_74 () (Array Int Int) (store .def_18 |.x{152}| |.x{162}|))
(define-fun .def_75 () Bool (= |.y{18}| .def_74))
(define-fun .def_69 () (Array Int Int) (store .def_22 |.x{55}| |.x{56}|))
(define-fun .def_70 () Bool (= |.y{20}| .def_69))
(define-fun .def_64 () Int (* (- 1) |.y{15}|))
(define-fun .def_65 () Int (+ .def_12 .def_64))
(define-fun .def_66 () Bool (= .def_65 (- 1)))
(define-fun .def_56 () Bool (= .def_24 |.y{21}|))
(define-fun .def_54 () Bool (= .def_10 |.y{14}|))
(define-fun .def_47 () Bool (<= |.x{55}| 0))
(define-fun .def_48 () Bool (not .def_47))
(define-fun .def_49 () Bool (or .def_46 .def_48))
(define-fun .def_39 () Int (* (- 1) |.x{55}|))
(define-fun .def_40 () Int (+ .def_20 .def_39))
(define-fun .def_41 () Int (+ .def_12 .def_40))
(define-fun .def_42 () Bool (= .def_41 0))
(define-fun .def_45 () Bool (and .def_42 .def_44))
(define-fun .def_50 () Bool (and .def_45 .def_49))
(define-fun .def_51 () Bool (and |.loc{5}| .def_50))
(define-fun .def_53 () Bool (and .def_51 .def_52))
(define-fun .def_55 () Bool (and .def_53 .def_54))
(define-fun .def_57 () Bool (and .def_55 .def_56))
(define-fun .def_59 () Bool (and .def_57 .def_58))
(define-fun .def_61 () Bool (and .def_59 .def_60))
(define-fun .def_63 () Bool (and .def_61 .def_62))
(define-fun .def_67 () Bool (and .def_63 .def_66))
(define-fun .def_71 () Bool (and .def_67 .def_70))
(define-fun .def_76 () Bool (and .def_71 .def_75))
(define-fun .def_81 () Bool (and .def_76 .def_80))
(define-fun .def_90 () Bool (and .def_81 .def_89))
(define-fun .def_92 () Bool (and .def_90 .def_91))
(define-fun .def_100 () Bool (and .def_92 .def_99))
(define-fun .def_102 () Bool (and .def_100 .def_101))
(define-fun .def_107 () Bool (and .def_102 .def_106))
(define-fun .def_109 () Bool (and .def_107 .def_108))
(define-fun .def_117 () Bool (and .def_109 .def_116))
(define-fun .def_118 () Bool (and .def_28 .def_117))
(define-fun .def_122 () Bool (and .def_118 .def_121))
(define-fun .def_127 () Bool (and .def_122 .def_126))
(define-fun .def_268 () Bool (! (or .def_127 .def_267) :trans true))
(define-fun .def_270 () Bool (and .def_28 .def_30))
(define-fun .def_271 () Bool (! (not .def_270) :invar-property 0))
(assert true)
